POSCAR\(2)
1.0
       10.0000000000         0.0000000000         0.0000000000
        0.0000000000        10.0000000000         0.0000000000
        0.0000000000         0.0000000000        10.0000000000
    H    C
    4    1
Cartesian
     2.738099992         2.258300036         1.618400067
     2.865400016         3.275899887         3.067100048
     1.387200058         3.311100006         2.084999979
     2.888100147         4.019500017         1.455499977
     2.469699979         3.216199875         2.056500018
