POSCAR\(2)
1.0
       12.4470000000         0.0000000000         0.0000000000
        0.0000000000        12.4470000000         0.0000000000
        0.0000000000         0.0000000000        12.4470000000
    O    H
    64   128
Cartesian
11.83 2.56 2.18
5.36 6.0 1.81
12.17 7.34 2.71
3.38 4.28 4.84
4.54 11.73 11.9
7.34 0.18 2.18
5.73 9.9 10.31
5.32 11.19 1.83
9.39 11.14 1.1
12.06 0.64 8.92
5.01 7.72 11.74
3.64 3.19 1.08
11.88 10.9 4.7
3.88 8.05 2.51
9.82 9.16 10.18
11.0 5.31 5.17
0.97 4.12 0.84
1.24 5.99 4.76
10.1 9.09 3.32
8.39 5.72 10.39
8.06 4.72 1.3
3.23 3.34 8.26
5.02 6.21 7.29
3.94 10.55 3.95
6.25 4.56 4.21
12.18 2.35 11.11
6.76 8.57 4.07
5.87 5.84 9.79
2.18 6.91 6.99
10.89 7.69 6.78
8.03 4.28 6.57
5.29 1.92 11.56
1.53 12.16 3.45
2.04 5.49 9.71
6.66 9.05 1.21
11.75 6.18 11.01
6.11 3.07 7.96
8.22 1.38 9.43
1.31 2.02 7.09
9.48 2.11 5.92
9.33 3.34 10.97
1.31 8.49 0.81
11.25 3.48 7.51
11.7 0.33 0.6
7.63 2.04 0.28
8.86 9.52 7.4
2.01 11.54 6.89
8.02 11.27 4.66
5.82 9.18 7.71
8.11 11.19 11.22
5.94 0.84 5.91
1.88 11.66 0.64
4.66 11.28 6.73
10.32 6.26 0.89
2.01 11.07 10.33
5.36 2.06 3.14
8.56 7.59 12.17
10.51 5.81 8.66
2.37 6.23 12.1
0.3 8.77 10.05
9.47 12.13 7.57
1.41 2.32 4.17
9.69 3.69 3.56
0.75 9.22 7.39
11.09 2.87 2.74
5.51 5.51 2.6
0.24 6.8 3.29
4.28 4.19 4.46
3.63 11.56 11.76
6.53 12.07 1.99
5.37 9.14 10.85
5.74 10.31 1.64
8.71 11.07 0.41
0.27 1.04 8.27
5.46 7.08 11.15
3.84 4.17 1.06
11.55 10.19 4.15
3.0 8.17 2.14
9.53 10.04 10.56
11.18 4.84 6.05
0.68 3.76 12.44
0.43 5.51 4.88
9.51 9.48 3.94
9.08 5.89 9.68
7.92 3.83 0.8
4.23 3.22 8.21
5.27 5.9 8.19
4.44 10.9 3.14
6.93 4.56 4.89
11.88 1.61 11.75
6.79 8.54 3.09
5.62 4.99 10.13
3.09 6.66 6.98
11.73 8.22 6.86
8.4 3.45 6.18
4.64 2.37 12.16
0.74 11.69 3.86
1.1 5.3 9.72
7.54 9.11 0.83
11.36 6.2 11.9
5.85 2.21 7.53
8.81 2.01 9.89
2.17 2.43 7.46
10.1 2.53 6.55
9.07 4.29 10.91
0.64 8.13 1.45
11.12 4.2 8.14
11.03 12.03 0.58
6.83 1.84 12.19
9.13 10.45 7.25
1.76 12.44 6.8
7.37 11.88 5.08
5.59 8.29 7.44
8.14 12.12 10.86
5.48 0.06 6.32
0.99 11.99 0.41
4.54 10.95 5.79
10.94 6.29 1.65
2.52 10.55 9.76
4.74 2.41 2.42
8.84 8.27 11.56
10.89 6.06 9.58
2.15 5.99 11.18
0.49 9.06 9.13
8.69 12.34 8.15
1.76 1.44 4.07
10.05 4.44 4.1
1.44 8.49 7.32
12.25 3.32 1.68
6.27 6.22 1.56
11.5 7.85 3.14
2.96 3.44 4.61
5.04 11.17 11.3
7.6 12.39 3.03
5.94 9.68 9.37
4.93 11.46 0.96
8.92 11.68 1.69
12.07 1.36 9.54
4.17 7.28 11.8
2.67 3.09 1.05
11.89 10.59 5.56
4.27 7.23 2.16
10.8 9.22 10.18
10.68 6.2 5.44
1.51 4.9 0.53
1.94 5.36 4.61
10.02 9.64 2.47
8.41 6.43 11.04
8.58 4.29 2.01
3.12 4.28 8.41
5.12 5.54 6.6
3.97 9.58 3.89
6.17 3.63 3.9
11.4 2.92 10.99
5.96 8.02 4.26
6.81 5.9 9.83
1.83 6.59 6.16
10.19 8.36 6.88
8.74 4.67 7.12
4.84 1.08 11.38
2.38 11.71 3.7
2.02 6.1 8.92
6.05 8.48 0.61
12.12 7.05 10.81
6.81 3.46 7.31
7.52 1.99 9.1
1.25 2.26 6.18
9.31 1.19 6.35
8.84 2.9 11.69
1.39 9.44 0.85
12.13 3.22 7.5
11.38 0.95 1.34
7.43 1.82 1.24
9.15 9.43 8.28
2.97 11.66 6.88
7.5 10.43 4.47
6.69 9.4 7.47
7.29 10.77 10.93
5.45 1.07 5.12
1.92 11.57 1.62
5.05 10.55 7.26
9.73 5.52 1.11
1.73 11.85 9.82
6.02 1.57 2.67
9.34 7.2 0.21
10.71 6.56 7.97
1.86 7.03 12.37
1.08 9.16 10.59
10.19 12.39 8.15
0.92 2.56 3.28
9.34 3.01 4.17
1.11 10.09 7.21
